solution status: optimal solution found
objective value:                     145912.138749707
d11(0,0)                                            1 	(obj:0)
d11(1,1)                                            1 	(obj:0)
d11(1,2)                                            1 	(obj:0)
d11(2,4)                                            1 	(obj:0)
d11(2,5)                                            1 	(obj:0)
d11(2,7)                                            1 	(obj:0)
d11(2,10)                                           1 	(obj:0)
d11(3,13)                                           1 	(obj:0)
d11(3,14)                                           1 	(obj:0)
d11(3,16)                                           1 	(obj:0)
d11(3,19)                                           1 	(obj:0)
d11(3,22)                                           1 	(obj:0)
d11(3,25)                                           1 	(obj:0)
d11(3,28)                                           1 	(obj:0)
d11(3,29)                                           1 	(obj:0)
d11(3,31)                                           1 	(obj:0)
d11(3,34)                                           1 	(obj:0)
d11(3,35)                                           1 	(obj:0)
d11(3,37)                                           1 	(obj:0)
d11(3,38)                                           1 	(obj:0)
d11(4,40)                                           1 	(obj:0)
d11(4,41)                                           1 	(obj:0)
d11(4,43)                                           1 	(obj:0)
d11(4,44)                                           1 	(obj:0)
d11(4,46)                                           1 	(obj:0)
d11(4,47)                                           1 	(obj:0)
d11(4,49)                                           1 	(obj:0)
d11(4,50)                                           1 	(obj:0)
d11(4,52)                                           1 	(obj:0)
d11(4,53)                                           1 	(obj:0)
d11(4,55)                                           1 	(obj:0)
d11(4,58)                                           1 	(obj:0)
d11(4,61)                                           1 	(obj:0)
d11(4,62)                                           1 	(obj:0)
d11(4,64)                                           1 	(obj:0)
d11(4,65)                                           1 	(obj:0)
d11(4,67)                                           1 	(obj:0)
d11(4,70)                                           1 	(obj:0)
d11(4,71)                                           1 	(obj:0)
d11(4,73)                                           1 	(obj:0)
d11(4,74)                                           1 	(obj:0)
d11(4,76)                                           1 	(obj:0)
d11(4,77)                                           1 	(obj:0)
d11(4,79)                                           1 	(obj:0)
d11(4,82)                                           1 	(obj:0)
d11(4,83)                                           1 	(obj:0)
d11(4,85)                                           1 	(obj:0)
d11(4,86)                                           1 	(obj:0)
d11(4,88)                                           1 	(obj:0)
d11(4,91)                                           1 	(obj:0)
d11(4,92)                                           1 	(obj:0)
d11(4,94)                                           1 	(obj:0)
d11(4,95)                                           1 	(obj:0)
d11(4,97)                                           1 	(obj:0)
d11(4,98)                                           1 	(obj:0)
d11(4,100)                                          1 	(obj:0)
d11(4,101)                                          1 	(obj:0)
d11(4,103)                                          1 	(obj:0)
d11(4,104)                                          1 	(obj:0)
d11(4,106)                                          1 	(obj:0)
d11(4,107)                                          1 	(obj:0)
d11(4,109)                                          1 	(obj:0)
d11(4,110)                                          1 	(obj:0)
d11(4,112)                                          1 	(obj:0)
d11(4,113)                                          1 	(obj:0)
d11(4,115)                                          1 	(obj:0)
d11(4,118)                                          1 	(obj:0)
d11(4,119)                                          1 	(obj:0)
d12(2,6)                                            1 	(obj:0)
d12(2,9)                                            1 	(obj:0)
d12(2,12)                                           1 	(obj:0)
d12(3,15)                                           1 	(obj:0)
d12(3,18)                                           1 	(obj:0)
d12(3,21)                                           1 	(obj:0)
d12(3,24)                                           1 	(obj:0)
d12(3,27)                                           1 	(obj:0)
d12(3,30)                                           1 	(obj:0)
d12(3,33)                                           1 	(obj:0)
d12(3,36)                                           1 	(obj:0)
d12(3,39)                                           1 	(obj:0)
d12(4,42)                                           1 	(obj:0)
d12(4,45)                                           1 	(obj:0)
d12(4,48)                                           1 	(obj:0)
d12(4,51)                                           1 	(obj:0)
d12(4,54)                                           1 	(obj:0)
d12(4,57)                                           1 	(obj:0)
d12(4,60)                                           1 	(obj:0)
d12(4,63)                                           1 	(obj:0)
d12(4,66)                                           1 	(obj:0)
d12(4,69)                                           1 	(obj:0)
d12(4,72)                                           1 	(obj:0)
d12(4,75)                                           1 	(obj:0)
d12(4,78)                                           1 	(obj:0)
d12(4,81)                                           1 	(obj:0)
d12(4,84)                                           1 	(obj:0)
d12(4,87)                                           1 	(obj:0)
d12(4,90)                                           1 	(obj:0)
d12(4,93)                                           1 	(obj:0)
d12(4,96)                                           1 	(obj:0)
d12(4,99)                                           1 	(obj:0)
d12(4,102)                                          1 	(obj:0)
d12(4,105)                                          1 	(obj:0)
d12(4,108)                                          1 	(obj:0)
d12(4,111)                                          1 	(obj:0)
d12(4,114)                                          1 	(obj:0)
d12(4,117)                                          1 	(obj:0)
d12(4,120)                                          1 	(obj:0)
d21(3,13)                                           1 	(obj:0)
d21(3,14)                                           1 	(obj:0)
d21(3,16)                                           1 	(obj:0)
d21(3,22)                                           1 	(obj:0)
d21(4,40)                                           1 	(obj:0)
d21(4,41)                                           1 	(obj:0)
d21(4,42)                                           1 	(obj:0)
d21(4,43)                                           1 	(obj:0)
d21(4,44)                                           1 	(obj:0)
d21(4,45)                                           1 	(obj:0)
d21(4,46)                                           1 	(obj:0)
d21(4,47)                                           1 	(obj:0)
d21(4,48)                                           1 	(obj:0)
d21(4,49)                                           1 	(obj:0)
d21(4,50)                                           1 	(obj:0)
d21(4,51)                                           1 	(obj:0)
d21(4,52)                                           1 	(obj:0)
d21(4,53)                                           1 	(obj:0)
d21(4,55)                                           1 	(obj:0)
d21(4,56)                                           1 	(obj:0)
d21(4,58)                                           1 	(obj:0)
d21(4,59)                                           1 	(obj:0)
d21(4,60)                                           1 	(obj:0)
d21(4,61)                                           1 	(obj:0)
d21(4,62)                                           1 	(obj:0)
d21(4,64)                                           1 	(obj:0)
d21(4,67)                                           1 	(obj:0)
d21(4,68)                                           1 	(obj:0)
d21(4,69)                                           1 	(obj:0)
d21(4,70)                                           1 	(obj:0)
d21(4,71)                                           1 	(obj:0)
d21(4,73)                                           1 	(obj:0)
d21(4,76)                                           1 	(obj:0)
d21(4,77)                                           1 	(obj:0)
d21(4,79)                                           1 	(obj:0)
d21(4,82)                                           1 	(obj:0)
d21(4,85)                                           1 	(obj:0)
d21(4,86)                                           1 	(obj:0)
d21(4,94)                                           1 	(obj:0)
d21(4,95)                                           1 	(obj:0)
d21(4,97)                                           1 	(obj:0)
d21(4,103)                                          1 	(obj:0)
y2(4,102)                            960.592982999987 	(obj:0)
y2(4,105)                            960.592982999987 	(obj:0)
y2(4,108)                            960.592982999987 	(obj:0)
y2(4,111)                            960.592982999987 	(obj:0)
y2(4,114)                            960.592982999987 	(obj:0)
y2(4,117)                            960.592982999987 	(obj:0)
y2(4,120)                            960.592982999987 	(obj:0)
STE(1,1)                             12317.4366661441 	(obj:0)
STE(0,0)                                        15750 	(obj:0)
STE(1,2)                             13314.2026694775 	(obj:0)
STE(1,3)                                        14490 	(obj:0)
STE(2,4)                             10060.6706628108 	(obj:0)
STE(2,5)                               11057.43666615 	(obj:0)
STE(2,6)                             11969.9999999942 	(obj:0)
STE(2,7)                             11057.4366661442 	(obj:0)
STE(2,8)                             12054.2026694775 	(obj:0)
STE(2,9)                             12966.7660033334 	(obj:0)
STE(2,10)                            12233.2339966667 	(obj:0)
STE(2,11)                                       13230 	(obj:0)
STE(2,12)                              14142.56333385 	(obj:0)
STE(3,13)                             7803.9046594775 	(obj:0)
STE(3,14)                            8800.67066281085 	(obj:0)
STE(3,15)                            9713.23399666083 	(obj:0)
STE(3,16)                            8800.67066281666 	(obj:0)
STE(3,17)                            9797.43666615001 	(obj:0)
STE(3,18)                                       10710 	(obj:0)
STE(3,19)                            9713.23399666083 	(obj:0)
STE(3,20)                            10709.9999999942 	(obj:0)
STE(3,21)                            11622.5633338442 	(obj:0)
STE(3,22)                            8800.67066281082 	(obj:0)
STE(3,23)                            9797.43666614417 	(obj:0)
STE(3,24)                            10709.9999999942 	(obj:0)
STE(3,25)                            9797.43666615001 	(obj:0)
STE(3,26)                            10794.2026694775 	(obj:0)
STE(3,27)                            11706.7660033274 	(obj:0)
STE(3,28)                                       10710 	(obj:0)
STE(3,29)                            11706.7660033334 	(obj:0)
STE(3,30)                            12619.3293371833 	(obj:0)
STE(3,31)                            9976.46799333336 	(obj:0)
STE(3,32)                            10973.2339966667 	(obj:0)
STE(3,33)                            11885.7973305167 	(obj:0)
STE(3,34)                            10973.2339966667 	(obj:0)
STE(3,35)                            11969.9999999999 	(obj:0)
STE(3,36)                              12882.56333385 	(obj:0)
STE(3,37)                            11885.7973305167 	(obj:0)
STE(3,38)                              12882.56333385 	(obj:0)
STE(3,39)                               13795.1266677 	(obj:0)
STE(4,40)                            5547.13865614415 	(obj:0)
STE(4,41)                             6543.9046594775 	(obj:0)
STE(4,42)                            7456.46799332748 	(obj:0)
STE(4,43)                             6543.9046594775 	(obj:0)
STE(4,44)                            7540.67066281085 	(obj:0)
STE(4,45)                            8453.23399666083 	(obj:0)
STE(4,46)                            7456.46799332748 	(obj:0)
STE(4,47)                            8453.23399666083 	(obj:0)
STE(4,48)                            9365.79733051082 	(obj:0)
STE(4,49)                            6543.90465948331 	(obj:0)
STE(4,50)                            7540.67066281666 	(obj:0)
STE(4,51)                            8453.23399666665 	(obj:0)
STE(4,52)                            7540.67066281666 	(obj:0)
STE(4,53)                            8537.43666614995 	(obj:0)
STE(4,54)                                        9450 	(obj:0)
STE(4,55)                            8453.23399666665 	(obj:0)
STE(4,56)                                        9450 	(obj:0)
STE(4,57)                              10362.56333385 	(obj:0)
STE(4,58)                            7456.46799332748 	(obj:0)
STE(4,59)                            8453.23399666083 	(obj:0)
STE(4,60)                            9365.79733051081 	(obj:0)
STE(4,61)                            8453.23399666083 	(obj:0)
STE(4,62)                            9449.99999999418 	(obj:0)
STE(4,63)                            10362.5633338442 	(obj:0)
STE(4,64)                            9365.79733051082 	(obj:0)
STE(4,65)                            10362.5633338442 	(obj:0)
STE(4,66)                            11275.1266676942 	(obj:0)
STE(4,67)                            6543.90465947747 	(obj:0)
STE(4,68)                            7540.67066281082 	(obj:0)
STE(4,69)                             8453.2339966608 	(obj:0)
STE(4,70)                            7540.67066281082 	(obj:0)
STE(4,71)                            8537.43666614417 	(obj:0)
STE(4,72)                            9449.99999999415 	(obj:0)
STE(4,73)                             8453.2339966608 	(obj:0)
STE(4,74)                                        9450 	(obj:0)
STE(4,75)                            10362.5633338441 	(obj:0)
STE(4,76)                            7540.67066281666 	(obj:0)
STE(4,77)                            8537.43666614995 	(obj:0)
STE(4,78)                                        9450 	(obj:0)
STE(4,79)                            8537.43666614411 	(obj:0)
STE(4,80)                            9534.20266947746 	(obj:0)
STE(4,81)                            10446.7660033274 	(obj:0)
STE(4,82)                            9449.99999999409 	(obj:0)
STE(4,83)                            10446.7660033274 	(obj:0)
STE(4,84)                            11359.3293371774 	(obj:0)
STE(4,85)                            8453.23399666665 	(obj:0)
STE(4,86)                                        9450 	(obj:0)
STE(4,87)                              10362.56333385 	(obj:0)
STE(4,88)                                        9450 	(obj:0)
STE(4,89)                            10446.7660033334 	(obj:0)
STE(4,90)                            11359.3293371833 	(obj:0)
STE(4,91)                              10362.56333385 	(obj:0)
STE(4,92)                            11359.3293371833 	(obj:0)
STE(4,93)                            12271.8926710333 	(obj:0)
STE(4,94)                            7719.70199000001 	(obj:0)
STE(4,95)                            8716.46799333336 	(obj:0)
STE(4,96)                            9629.03132718335 	(obj:0)
STE(4,97)                            8716.46799333336 	(obj:0)
STE(4,98)                            9713.23399666671 	(obj:0)
STE(4,99)                            10625.7973305167 	(obj:0)
STE(4,100)                           9629.03132718335 	(obj:0)
STE(4,101)                           10625.7973305167 	(obj:0)
STE(4,102)                           11538.3606643667 	(obj:0)
STE(4,103)                            8716.4679933333 	(obj:0)
STE(4,104)                           9713.23399666659 	(obj:0)
STE(4,105)                           10625.7973305166 	(obj:0)
STE(4,106)                           9713.23399666659 	(obj:0)
STE(4,107)                           10709.9999999999 	(obj:0)
STE(4,108)                           11622.5633338499 	(obj:0)
STE(4,109)                           10625.7973305166 	(obj:0)
STE(4,110)                           11622.5633338499 	(obj:0)
STE(4,111)                              12535.1266677 	(obj:0)
STE(4,112)                           9629.03132718334 	(obj:0)
STE(4,113)                           10625.7973305166 	(obj:0)
STE(4,114)                           11538.3606643667 	(obj:0)
STE(4,115)                           10625.7973305167 	(obj:0)
STE(4,116)                             11622.56333385 	(obj:0)
STE(4,117)                              12535.1266677 	(obj:0)
STE(4,118)                           11538.3606643667 	(obj:0)
STE(4,119)                              12535.1266677 	(obj:0)
STE(4,120)                             13447.69000155 	(obj:0)
y1(4,100)                            897.089403000015 	(obj:0)
y1(4,103)                            897.089403000015 	(obj:0)
y1(4,106)                            897.089403000015 	(obj:0)
y1(4,109)                            897.089403000015 	(obj:0)
y1(4,112)                            897.089403000015 	(obj:0)
y1(4,115)                            897.089403000015 	(obj:0)
y1(4,118)                            897.089403000015 	(obj:0)
WB(3)                                 3399.3204933139 	(obj:0)
AVE(3)                                3399.3204933139 	(obj:0)
AVE(4)                               3353.21046544222 	(obj:0)
y2(4,99)                             960.592982999987 	(obj:0)
WG(4)                                3353.21046544222 	(obj:10)
BG(1)                                4457.66387496963 	(obj:10)
BG(2)                                3377.84999999995 	(obj:10)
BG(3)                                         3377.85 	(obj:10)
BG(4)                                24.6395345577802 	(obj:10)
WB(1)                                3134.60043707458 	(obj:0)
AVE(1)                               3134.60043707458 	(obj:0)
WB(2)                                3326.45170866643 	(obj:0)
AVE(2)                               3326.45170866643 	(obj:0)
y1(1,1)                              1955.30700047028 	(obj:0)
y1(1,2)                              1058.21759747029 	(obj:0)
y1(2,4)                              897.089402999962 	(obj:0)
y1(2,5)                          -5.28991222381592e-009 	(obj:0)
y1(2,7)                              897.089402999962 	(obj:0)
y1(2,10)                             897.089402999962 	(obj:0)
y1(3,13)                             897.089403000015 	(obj:0)
y1(3,16)                             897.089403000015 	(obj:0)
y1(3,19)                             897.089403000015 	(obj:0)
y1(3,22)                             897.089403000015 	(obj:0)
y1(3,25)                               897.0894029947 	(obj:0)
y1(3,28)                             897.089403000015 	(obj:0)
y1(3,31)                             897.089403000015 	(obj:0)
y1(3,34)                             897.089403000015 	(obj:0)
y1(3,37)                             897.089403000015 	(obj:0)
y1(4,40)                             897.089403000015 	(obj:0)
y1(4,43)                             897.089403000015 	(obj:0)
y1(4,46)                             897.089403000015 	(obj:0)
y1(4,49)                             897.089403000015 	(obj:0)
y1(4,52)                             897.089403000015 	(obj:0)
y1(4,55)                             897.089403000015 	(obj:0)
y1(4,58)                             897.089403000015 	(obj:0)
y1(4,61)                             897.089403000015 	(obj:0)
y1(4,64)                             897.089403000015 	(obj:0)
y1(4,67)                             897.089403000015 	(obj:0)
y1(4,70)                             897.089403000015 	(obj:0)
y1(4,73)                             897.089403000015 	(obj:0)
y1(4,74)                         -5.26430085301399e-009 	(obj:0)
y1(4,76)                             897.089403000015 	(obj:0)
y1(4,79)                             897.089403000015 	(obj:0)
y1(4,82)                             897.089403000015 	(obj:0)
y1(4,85)                             897.089403000015 	(obj:0)
y1(4,88)                             897.089403000015 	(obj:0)
y1(4,91)                             897.089403000015 	(obj:0)
y1(4,94)                             897.089403000015 	(obj:0)
y1(4,97)                             897.089403000015 	(obj:0)
y2(2,6)                              960.592983000042 	(obj:0)
y2(2,9)                              960.592983006203 	(obj:0)
y2(2,12)                             960.592983000042 	(obj:0)
y2(3,15)                             960.592982999986 	(obj:0)
y2(3,18)                             960.592982999986 	(obj:0)
y2(3,21)                             960.592982999986 	(obj:0)
y2(3,24)                             960.592982999986 	(obj:0)
y2(3,27)                             960.592982999986 	(obj:0)
y2(3,30)                             960.592982999986 	(obj:0)
y2(3,33)                             960.592982999986 	(obj:0)
y2(3,36)                             960.592982999986 	(obj:0)
y2(3,39)                             960.592982999986 	(obj:0)
y2(4,42)                             960.592982999987 	(obj:0)
y2(4,45)                             960.592982999987 	(obj:0)
y2(4,48)                             960.592982999987 	(obj:0)
y2(4,51)                             960.592982999987 	(obj:0)
y2(4,54)                             960.592982999987 	(obj:0)
y2(4,57)                             960.592982999987 	(obj:0)
y2(4,60)                             960.592982999987 	(obj:0)
y2(4,63)                             960.592982999987 	(obj:0)
y2(4,66)                             960.592982999987 	(obj:0)
y2(4,69)                             960.592982999987 	(obj:0)
y2(4,72)                             960.592982999987 	(obj:0)
y2(4,75)                             960.592982999987 	(obj:0)
y2(4,78)                             960.592982999987 	(obj:0)
y2(4,81)                             960.592982999987 	(obj:0)
y2(4,84)                             960.592982999987 	(obj:0)
y2(4,87)                             960.592982999987 	(obj:0)
y2(4,90)                             960.592982999987 	(obj:0)
y2(4,93)                             960.592982999987 	(obj:0)
y2(4,96)                             960.592982999987 	(obj:0)
